Problem:    Cestini
Rows:       22
Columns:    66 (36 integer, 36 binary)
Non-zeros:  132
Status:     INTEGER OPTIMAL
Objective:  z[1] = 0 (MINimum)

   No.   Row name        Activity     Lower bound   Upper bound
------ ------------    ------------- ------------- -------------
     1 spazzatura[1]
                                  12            12             = 
     2 spazzatura[2]
                                   8             8             = 
     3 spazzatura[3]
                                   8             8             = 
     4 spazzatura[4]
                                  15            15             = 
     5 spazzatura[5]
                                  12            12             = 
     6 capacita_max[1]
                                  12                          20 
     7 capacita_max[2]
                                   8                          20 
     8 capacita_max[3]
                                   8                          20 
     9 capacita_max[4]
                                  15                          20 
    10 capacita_max[5]
                                  12                          20 
    11 cestini                     4             4             = 
    12 coerenza[1]                 0                          -0 
    13 coerenza[2]                 0                          -0 
    14 coerenza[3]                 0                          -0 
    15 coerenza[4]                 0                          -0 
    16 coerenza[5]                 0                          -0 
    17 coerenza[6]                 0                          -0 
    18 z[1]                        0                             
    19 z[2]                        0                             
    20 z[3]                        0                             
    21 z[4]                        0                             
    22 z[5]                       74                             

   No. Column name       Activity     Lower bound   Upper bound
------ ------------    ------------- ------------- -------------
     1 x[1]         *              1             0             1 
     2 x[2]         *              1             0             1 
     3 x[3]         *              0             0             1 
     4 x[4]         *              0             0             1 
     5 x[5]         *              1             0             1 
     6 x[6]         *              1             0             1 
     7 y[1,1]       *              0             0             1 
     8 y[2,1]       *              0             0             1 
     9 y[3,1]       *              0             0             1 
    10 y[4,1]       *              0             0             1 
    11 y[5,1]       *              1             0             1 
    12 y[1,2]       *              0             0             1 
    13 y[2,2]       *              0             0             1 
    14 y[3,2]       *              0             0             1 
    15 y[4,2]       *              0             0             1 
    16 y[5,2]       *              1             0             1 
    17 y[1,3]       *              0             0             1 
    18 y[2,3]       *              0             0             1 
    19 y[3,3]       *              0             0             1 
    20 y[4,3]       *              0             0             1 
    21 y[5,3]       *              0             0             1 
    22 y[1,4]       *              0             0             1 
    23 y[2,4]       *              0             0             1 
    24 y[3,4]       *              0             0             1 
    25 y[4,4]       *              0             0             1 
    26 y[5,4]       *              0             0             1 
    27 y[1,5]       *              0             0             1 
    28 y[2,5]       *              0             0             1 
    29 y[3,5]       *              0             0             1 
    30 y[4,5]       *              0             0             1 
    31 y[5,5]       *              1             0             1 
    32 y[1,6]       *              0             0             1 
    33 y[2,6]       *              0             0             1 
    34 y[3,6]       *              0             0             1 
    35 y[4,6]       *              0             0             1 
    36 y[5,6]       *              1             0             1 
    37 s[1,1]                      0             0               
    38 s[1,2]                      0             0               
    39 s[1,3]                      0             0               
    40 s[1,4]                      0             0               
    41 s[1,5]                      0             0               
    42 s[1,6]                     12             0               
    43 s[2,1]                      0             0               
    44 s[2,2]                      0             0               
    45 s[2,3]                      0             0               
    46 s[2,4]                      0             0               
    47 s[2,5]                      0             0               
    48 s[2,6]                      8             0               
    49 s[3,1]                      0             0               
    50 s[3,2]                      0             0               
    51 s[3,3]                      0             0               
    52 s[3,4]                      0             0               
    53 s[3,5]                      0             0               
    54 s[3,6]                      8             0               
    55 s[4,1]                      0             0               
    56 s[4,2]                      0             0               
    57 s[4,3]                      0             0               
    58 s[4,4]                      0             0               
    59 s[4,5]                      0             0               
    60 s[4,6]                     15             0               
    61 s[5,1]                      0             0               
    62 s[5,2]                      0             0               
    63 s[5,3]                      0             0               
    64 s[5,4]                      0             0               
    65 s[5,5]                      0             0               
    66 s[5,6]                     12             0               

Integer feasibility conditions:

KKT.PE: max.abs.err = 0.00e+000 on row 0
        max.rel.err = 0.00e+000 on row 0
        High quality

KKT.PB: max.abs.err = 0.00e+000 on row 0
        max.rel.err = 0.00e+000 on row 0
        High quality

End of output
